\ This file has been generated by DOcplex
\ ENCODING=ISO-8859-1
\Problem name: dectiger problem

Minimize
 obj: V
Subject To
 c1: V + 2 a1_0 - 5.677852348993 a1_1 + 97.677852348993 a1_2 >= 0
 c2: V - 5.677852348993 a1_0 - 17.885906040268 a1_1 + 100 a1_2 >= 0
 c3: V + 97.677852348993 a1_0 + 100 a1_1 + 47.885906040268 a1_2 >= 0
 c4: a1_0 + a1_1 + a1_2 = 1

Bounds
       a1_0 <= 1
       a1_1 <= 1
       a1_2 <= 1
       V Free
End
